c nIsolatedPIs 0
c maxPI 32
p cnf 221 568
c gate 33 -2 18 0
-2 -33 0
18 -33 0
2 -18 33 0
c gate 34 -1 17 0
-1 -34 0
17 -34 0
1 -17 34 0
c gate 35 -33 -34 0
-33 -35 0
-34 -35 0
33 34 35 0
c gate 36 2 -18 0
2 -36 0
-18 -36 0
-2 18 36 0
c gate 37 3 -19 0
3 -37 0
-19 -37 0
-3 19 37 0
c gate 38 -36 -37 0
-36 -38 0
-37 -38 0
36 37 38 0
c gate 39 -35 38 0
-35 -39 0
38 -39 0
35 -38 39 0
c gate 40 -4 20 0
-4 -40 0
20 -40 0
4 -20 40 0
c gate 41 -3 19 0
-3 -41 0
19 -41 0
3 -19 41 0
c gate 42 -40 -41 0
-40 -42 0
-41 -42 0
40 41 42 0
c gate 43 -39 42 0
-39 -43 0
42 -43 0
39 -42 43 0
c gate 44 5 -21 0
5 -44 0
-21 -44 0
-5 21 44 0
c gate 45 4 -20 0
4 -45 0
-20 -45 0
-4 20 45 0
c gate 46 -44 -45 0
-44 -46 0
-45 -46 0
44 45 46 0
c gate 47 -43 46 0
-43 -47 0
46 -47 0
43 -46 47 0
c gate 48 -6 -22 0
-6 -48 0
-22 -48 0
6 22 48 0
c gate 49 6 22 0
6 -49 0
22 -49 0
-6 -22 49 0
c gate 50 -48 -49 0
-48 -50 0
-49 -50 0
48 49 50 0
c gate 51 -5 21 0
-5 -51 0
21 -51 0
5 -21 51 0
c gate 52 -50 -51 0
-50 -52 0
-51 -52 0
50 51 52 0
c gate 53 -47 52 0
-47 -53 0
52 -53 0
47 -52 53 0
c gate 54 -14 -30 0
-14 -54 0
-30 -54 0
14 30 54 0
c gate 55 14 30 0
14 -55 0
30 -55 0
-14 -30 55 0
c gate 56 -54 -55 0
-54 -56 0
-55 -56 0
54 55 56 0
c gate 57 12 28 0
12 -57 0
28 -57 0
-12 -28 57 0
c gate 58 13 29 0
13 -58 0
29 -58 0
-13 -29 58 0
c gate 59 -57 -58 0
-57 -59 0
-58 -59 0
57 58 59 0
c gate 60 56 -59 0
56 -60 0
-59 -60 0
-56 59 60 0
c gate 61 -56 59 0
-56 -61 0
59 -61 0
56 -59 61 0
c gate 62 -60 -61 0
-60 -62 0
-61 -62 0
60 61 62 0
c gate 63 -13 -29 0
-13 -63 0
-29 -63 0
13 29 63 0
c gate 64 -12 -28 0
-12 -64 0
-28 -64 0
12 28 64 0
c gate 65 -57 -64 0
-57 -65 0
-64 -65 0
57 64 65 0
c gate 66 -11 -27 0
-11 -66 0
-27 -66 0
11 27 66 0
c gate 67 -10 -26 0
-10 -67 0
-26 -67 0
10 26 67 0
c gate 68 9 25 0
9 -68 0
25 -68 0
-9 -25 68 0
c gate 69 -2 -18 0
-2 -69 0
-18 -69 0
2 18 69 0
c gate 70 1 17 0
1 -70 0
17 -70 0
-1 -17 70 0
c gate 71 -69 70 0
-69 -71 0
70 -71 0
69 -70 71 0
c gate 72 3 19 0
3 -72 0
19 -72 0
-3 -19 72 0
c gate 73 2 18 0
2 -73 0
18 -73 0
-2 -18 73 0
c gate 74 -72 -73 0
-72 -74 0
-73 -74 0
72 73 74 0
c gate 75 -71 74 0
-71 -75 0
74 -75 0
71 -74 75 0
c gate 76 -4 -20 0
-4 -76 0
-20 -76 0
4 20 76 0
c gate 77 -3 -19 0
-3 -77 0
-19 -77 0
3 19 77 0
c gate 78 -76 -77 0
-76 -78 0
-77 -78 0
76 77 78 0
c gate 79 -75 78 0
-75 -79 0
78 -79 0
75 -78 79 0
c gate 80 4 20 0
4 -80 0
20 -80 0
-4 -20 80 0
c gate 81 5 21 0
5 -81 0
21 -81 0
-5 -21 81 0
c gate 82 -80 -81 0
-80 -82 0
-81 -82 0
80 81 82 0
c gate 83 -79 82 0
-79 -83 0
82 -83 0
79 -82 83 0
c gate 84 -5 -21 0
-5 -84 0
-21 -84 0
5 21 84 0
c gate 85 -48 -84 0
-48 -85 0
-84 -85 0
48 84 85 0
c gate 86 -83 85 0
-83 -86 0
85 -86 0
83 -85 86 0
c gate 87 7 -23 0
7 -87 0
-23 -87 0
-7 23 87 0
c gate 88 -7 23 0
-7 -88 0
23 -88 0
7 -23 88 0
c gate 89 -87 -88 0
-87 -89 0
-88 -89 0
87 88 89 0
c gate 90 -49 -89 0
-49 -90 0
-89 -90 0
49 89 90 0
c gate 91 -86 90 0
-86 -91 0
90 -91 0
86 -90 91 0
c gate 92 8 24 0
8 -92 0
24 -92 0
-8 -24 92 0
c gate 93 -8 -24 0
-8 -93 0
-24 -93 0
8 24 93 0
c gate 94 -92 -93 0
-92 -94 0
-93 -94 0
92 93 94 0
c gate 95 91 94 0
91 -95 0
94 -95 0
-91 -94 95 0
c gate 96 -7 -23 0
-7 -96 0
-23 -96 0
7 23 96 0
c gate 97 -92 96 0
-92 -97 0
96 -97 0
92 -96 97 0
c gate 98 -9 -25 0
-9 -98 0
-25 -98 0
9 25 98 0
c gate 99 -93 -98 0
-93 -99 0
-98 -99 0
93 98 99 0
c gate 100 -97 99 0
-97 -100 0
99 -100 0
97 -99 100 0
c gate 101 -95 100 0
-95 -101 0
100 -101 0
95 -100 101 0
c gate 102 -68 -101 0
-68 -102 0
-101 -102 0
68 101 102 0
c gate 103 -67 -102 0
-67 -103 0
-102 -103 0
67 102 103 0
c gate 104 11 27 0
11 -104 0
27 -104 0
-11 -27 104 0
c gate 105 10 26 0
10 -105 0
26 -105 0
-10 -26 105 0
c gate 106 -104 -105 0
-104 -106 0
-105 -106 0
104 105 106 0
c gate 107 -103 106 0
-103 -107 0
106 -107 0
103 -106 107 0
c gate 108 -66 -107 0
-66 -108 0
-107 -108 0
66 107 108 0
c gate 109 65 108 0
65 -109 0
108 -109 0
-65 -108 109 0
c gate 110 59 -109 0
59 -110 0
-109 -110 0
-59 109 110 0
c gate 111 -63 -110 0
-63 -111 0
-110 -111 0
63 110 111 0
c gate 112 56 -111 0
56 -112 0
-111 -112 0
-56 111 112 0
c gate 113 -56 111 0
-56 -113 0
111 -113 0
56 -111 113 0
c gate 114 -112 -113 0
-112 -114 0
-113 -114 0
112 113 114 0
c gate 115 62 114 0
62 -115 0
114 -115 0
-62 -114 115 0
c gate 116 -62 -114 0
-62 -116 0
-114 -116 0
62 114 116 0
c gate 117 -115 -116 0
-115 -117 0
-116 -117 0
115 116 117 0
c gate 118 -68 -105 0
-68 -118 0
-105 -118 0
68 105 118 0
c gate 119 -100 118 0
-100 -119 0
118 -119 0
100 -118 119 0
c gate 120 -66 -67 0
-66 -120 0
-67 -120 0
66 67 120 0
c gate 121 -119 120 0
-119 -121 0
120 -121 0
119 -120 121 0
c gate 122 -104 -121 0
-104 -122 0
-121 -122 0
104 121 122 0
c gate 123 -65 108 0
-65 -123 0
108 -123 0
65 -108 123 0
c gate 124 122 -123 0
122 -124 0
-123 -124 0
-122 123 124 0
c gate 125 65 -108 0
65 -125 0
-108 -125 0
-65 108 125 0
c gate 126 -122 -125 0
-122 -126 0
-125 -126 0
122 125 126 0
c gate 127 -124 -126 0
-124 -127 0
-126 -127 0
124 126 127 0
c gate 128 117 127 0
117 -128 0
127 -128 0
-117 -127 128 0
c gate 129 15 31 0
15 -129 0
31 -129 0
-15 -31 129 0
c gate 130 -15 -31 0
-15 -130 0
-31 -130 0
15 31 130 0
c gate 131 -129 -130 0
-129 -131 0
-130 -131 0
129 130 131 0
c gate 132 -55 -60 0
-55 -132 0
-60 -132 0
55 60 132 0
c gate 133 131 -132 0
131 -133 0
-132 -133 0
-131 132 133 0
c gate 134 -129 -133 0
-129 -134 0
-133 -134 0
129 133 134 0
c gate 135 16 -32 0
16 -135 0
-32 -135 0
-16 32 135 0
c gate 136 -16 32 0
-16 -136 0
32 -136 0
16 -32 136 0
c gate 137 -135 -136 0
-135 -137 0
-136 -137 0
135 136 137 0
c gate 138 134 -137 0
134 -138 0
-137 -138 0
-134 137 138 0
c gate 139 -134 137 0
-134 -139 0
137 -139 0
134 -137 139 0
c gate 140 -138 -139 0
-138 -140 0
-139 -140 0
138 139 140 0
c gate 141 -54 -112 0
-54 -141 0
-112 -141 0
54 112 141 0
c gate 142 131 -141 0
131 -142 0
-141 -142 0
-131 141 142 0
c gate 143 -130 -142 0
-130 -143 0
-142 -143 0
130 142 143 0
c gate 144 137 143 0
137 -144 0
143 -144 0
-137 -143 144 0
c gate 145 -137 -143 0
-137 -145 0
-143 -145 0
137 143 145 0
c gate 146 -144 -145 0
-144 -146 0
-145 -146 0
144 145 146 0
c gate 147 -140 146 0
-140 -147 0
146 -147 0
140 -146 147 0
c gate 148 140 -146 0
140 -148 0
-146 -148 0
-140 146 148 0
c gate 149 -131 132 0
-131 -149 0
132 -149 0
131 -132 149 0
c gate 150 -133 -149 0
-133 -150 0
-149 -150 0
133 149 150 0
c gate 151 -131 141 0
-131 -151 0
141 -151 0
131 -141 151 0
c gate 152 -142 -151 0
-142 -152 0
-151 -152 0
142 151 152 0
c gate 153 -150 -152 0
-150 -153 0
-152 -153 0
150 152 153 0
c gate 154 150 152 0
150 -154 0
152 -154 0
-150 -152 154 0
c gate 155 -58 -63 0
-58 -155 0
-63 -155 0
58 63 155 0
c gate 156 109 -155 0
109 -156 0
-155 -156 0
-109 155 156 0
c gate 157 -116 -156 0
-116 -157 0
-156 -157 0
116 156 157 0
c gate 158 -154 -157 0
-154 -158 0
-157 -158 0
154 157 158 0
c gate 159 -153 -158 0
-153 -159 0
-158 -159 0
153 158 159 0
c gate 160 -148 159 0
-148 -160 0
159 -160 0
148 -159 160 0
c gate 161 -147 -160 0
-147 -161 0
-160 -161 0
147 160 161 0
c gate 162 -128 -161 0
-128 -162 0
-161 -162 0
128 161 162 0
c gate 163 -95 -109 0
-95 -163 0
-109 -163 0
95 109 163 0
c gate 164 117 163 0
117 -164 0
163 -164 0
-117 -163 164 0
c gate 165 -162 -164 0
-162 -165 0
-164 -165 0
162 164 165 0
c gate 166 -66 -104 0
-66 -166 0
-104 -166 0
66 104 166 0
c gate 167 10 -26 0
10 -167 0
-26 -167 0
-10 26 167 0
c gate 168 8 -24 0
8 -168 0
-24 -168 0
-8 24 168 0
c gate 169 -68 -98 0
-68 -169 0
-98 -169 0
68 98 169 0
c gate 170 -168 -169 0
-168 -170 0
-169 -170 0
168 169 170 0
c gate 171 -10 26 0
-10 -171 0
26 -171 0
10 -26 171 0
c gate 172 -9 25 0
-9 -172 0
25 -172 0
9 -25 172 0
c gate 173 -171 -172 0
-171 -173 0
-172 -173 0
171 172 173 0
c gate 174 -170 173 0
-170 -174 0
173 -174 0
170 -173 174 0
c gate 175 -167 -174 0
-167 -175 0
-174 -175 0
167 174 175 0
c gate 176 53 -88 0
53 -176 0
-88 -176 0
-53 88 176 0
c gate 177 6 -22 0
6 -177 0
-22 -177 0
-6 22 177 0
c gate 178 -88 177 0
-88 -178 0
177 -178 0
88 -177 178 0
c gate 179 -87 -178 0
-87 -179 0
-178 -179 0
87 178 179 0
c gate 180 -176 179 0
-176 -180 0
179 -180 0
176 -179 180 0
c gate 181 -94 -180 0
-94 -181 0
-180 -181 0
94 180 181 0
c gate 182 173 181 0
173 -182 0
181 -182 0
-173 -181 182 0
c gate 183 175 -182 0
175 -183 0
-182 -183 0
-175 182 183 0
c gate 184 -166 183 0
-166 -184 0
183 -184 0
166 -183 184 0
c gate 185 138 143 0
138 -185 0
143 -185 0
-138 -143 185 0
c gate 186 -53 -185 0
-53 -186 0
-185 -186 0
53 185 186 0
c gate 187 165 186 0
165 -187 0
186 -187 0
-165 -186 187 0
c gate 188 53 -89 0
53 -188 0
-89 -188 0
-53 89 188 0
c gate 189 -53 -137 0
-53 -189 0
-137 -189 0
53 137 189 0
c gate 190 148 189 0
148 -190 0
189 -190 0
-148 -189 190 0
c gate 191 -188 -190 0
-188 -191 0
-190 -191 0
188 190 191 0
c gate 192 -187 191 0
-187 -192 0
191 -192 0
187 -191 192 0
c gate 193 94 179 0
94 -193 0
179 -193 0
-94 -179 193 0
c gate 194 -180 193 0
-180 -194 0
193 -194 0
180 -193 194 0
c gate 195 192 -194 0
192 -195 0
-194 -195 0
-192 194 195 0
c gate 196 -181 -195 0
-181 -196 0
-195 -196 0
181 195 196 0
c gate 197 -167 -171 0
-167 -197 0
-171 -197 0
167 171 197 0
c gate 198 -169 197 0
-169 -198 0
197 -198 0
169 -197 198 0
c gate 199 181 -198 0
181 -199 0
-198 -199 0
-181 198 199 0
c gate 200 -196 -199 0
-196 -200 0
-199 -200 0
196 199 200 0
c gate 201 166 -183 0
166 -201 0
-183 -201 0
-166 183 201 0
c gate 202 -184 -201 0
-184 -202 0
-201 -202 0
184 201 202 0
c gate 203 175 -202 0
175 -203 0
-202 -203 0
-175 202 203 0
c gate 204 200 -203 0
200 -204 0
-203 -204 0
-200 203 204 0
c gate 205 -184 -204 0
-184 -205 0
-204 -205 0
184 204 205 0
c gate 206 -56 -131 0
-56 -206 0
-131 -206 0
56 131 206 0
c gate 207 -65 137 0
-65 -207 0
137 -207 0
65 -137 207 0
c gate 208 -155 207 0
-155 -208 0
207 -208 0
155 -207 208 0
c gate 209 206 208 0
206 -209 0
208 -209 0
-206 -208 209 0
c gate 210 184 209 0
184 -210 0
209 -210 0
-184 -209 210 0
c gate 211 -205 -210 0
-205 -211 0
-210 -211 0
205 210 211 0
c gate 212 -165 211 0
-165 -212 0
211 -212 0
165 -211 212 0
c gate 213 91 -127 0
91 -213 0
-127 -213 0
-91 127 213 0
c gate 214 -109 -213 0
-109 -214 0
-213 -214 0
109 213 214 0
c gate 215 117 214 0
117 -215 0
214 -215 0
-117 -214 215 0
c gate 216 -161 -215 0
-161 -216 0
-215 -216 0
161 215 216 0
c gate 217 -211 -216 0
-211 -217 0
-216 -217 0
211 216 217 0
c gate 218 -212 -217 0
-212 -218 0
-217 -218 0
212 217 218 0
c gate 219 -53 -218 0
-53 -219 0
-218 -219 0
53 218 219 0
c gate 220 53 218 0
53 -220 0
218 -220 0
-53 -218 220 0
c gate 221 -219 -220 0
-219 -221 0
-220 -221 0
219 220 221 0
c PO
221 0
